set PETROLEO := 1 2 3 4;
set GASOLINA := SA AZ AM;

param preco :=
    SA  35
    AZ  28
    AM  22;

param: PETROLEO: custo max_barris :=
    1  19  3500
    2  24  2200
    3  20  4200
    4  27  1800;

param max_espec:
        1     2     3     4 :=
    SA  0.3   1.0   0.5   1.0
    AZ  0.3   1.0   1.0   1.0
    AM  1.0   1.0   1.0   1.0;

param min_espec:
        1     2     3     4 :=
    SA  0.0   0.4   0.0   0.0
    AZ  0.0   0.1   0.0   0.0
    AM  0.0   0.0   0.0   0.0;